nN = 10;
nR = 30;
nH = 2;

a = [[15, 20, 24, 24, 22, 24, 24, 17, 15, 21, 18, 17, 19, 16, 17, 22, 19, 18, 16, 19, 23, 15, 24, 20, 15, 18, 20, 21, 20, 18], [19, 18, 21, 19, 23, 16, 20, 21, 23, 24, 15, 23, 15, 22, 19, 17, 16, 17, 17, 17, 20, 18, 16, 23, 24, 21, 16, 24, 20, 15], [23, 19, 22, 23, 15, 19, 23, 21, 15, 18, 17, 17, 16, 23, 23, 22, 21, 23, 17, 22, 16, 23, 20, 19, 15, 19, 15, 24, 17, 17], [15, 16, 21, 19, 21, 18, 16, 20, 23, 19, 20, 19, 16, 23, 15, 24, 20, 18, 17, 16, 22, 22, 20, 16, 24, 15, 18, 17, 21, 21], [17, 16, 17, 24, 18, 15, 23, 19, 20, 19, 23, 24, 17, 21, 25, 17, 19, 25, 22, 15, 18, 20, 24, 21, 19, 21, 16, 15, 19, 25], [19, 15, 20, 24, 19, 19, 17, 25, 21, 25, 17, 21, 16, 21, 24, 25, 19, 16, 22, 17, 15, 21, 16, 21, 20, 18, 17, 19, 18, 25], [25, 20, 21, 24, 22, 22, 16, 19, 16, 17, 25, 16, 18, 20, 17, 25, 18, 22, 23, 17, 17, 24, 17, 17, 25, 15, 18, 17, 21, 15], [24, 16, 22, 19, 19, 23, 21, 17, 25, 24, 17, 24, 25, 23, 23, 17, 25, 25, 22, 24, 23, 22, 19, 15, 16, 24, 15, 21, 19, 20], [15, 20, 21, 17, 20, 22, 19, 20, 25, 21, 23, 16, 17, 15, 20, 15, 25, 16, 25, 19, 25, 16, 19, 15, 19, 23, 19, 19, 17, 17], [19, 25, 21, 16, 24, 15, 23, 19, 21, 23, 15, 24, 22, 25, 15, 22, 23, 21, 15, 17, 21, 25, 21, 16, 25, 19, 23, 19, 22, 16]];
c = [[[0, 0, 0, 0, 0, 0, 0, 0, 0, 0, 0, 0, 0, 0, 0, 0, 0, 0, 0, 0, 0, 0, 0, 0, 0, 0, 0, 0, 0, 0], [47, 50, 42, 44, 43, 32, 38, 47, 38, 32, 45, 40, 36, 50, 34, 39, 41, 50, 38, 32, 40, 46, 33, 43, 36, 46, 50, 41, 44, 32], [36, 45, 46, 37, 46, 38, 31, 47, 32, 34, 33, 30, 37, 48, 37, 34, 45, 33, 45, 38, 35, 48, 50, 39, 30, 40, 39, 38, 42, 37], [35, 33, 44, 32, 49, 42, 32, 39, 43, 34, 49, 33, 47, 43, 32, 35, 33, 44, 30, 39, 32, 30, 48, 36, 47, 42, 39, 41, 49, 48], [43, 45, 32, 48, 33, 47, 47, 36, 41, 45, 41, 41, 41, 40, 47, 35, 38, 44, 33, 30, 46, 44, 44, 36, 35, 33, 41, 40, 44, 39], [39, 45, 41, 43, 45, 30, 31, 42, 50, 44, 37, 41, 39, 44, 33, 32, 49, 41, 42, 45, 45, 32, 31, 36, 45, 39, 36, 37, 46, 47], [41, 38, 31, 32, 32, 48, 41, 46, 50, 39, 34, 48, 32, 41, 30, 38, 33, 43, 49, 33, 48, 43, 50, 46, 40, 40, 45, 33, 40, 43], [44, 41, 46, 45, 42, 38, 48, 46, 40, 40, 33, 30, 48, 40, 43, 48, 38, 41, 46, 30, 50, 40, 32, 46, 44, 40, 36, 36, 48, 44], [49, 42, 43, 48, 31, 40, 36, 35, 50, 49, 31, 35, 37, 45, 50, 47, 44, 42, 45, 31, 48, 43, 43, 42, 36, 42, 30, 31, 42, 34], [40, 46, 38, 42, 32, 33, 45, 38, 38, 39, 36, 46, 40, 31, 48, 50, 38, 48, 50, 46, 40, 38, 39, 45, 34, 41, 38, 32, 38, 38]], [[0, 0, 0, 0, 0, 0, 0, 0, 0, 0, 0, 0, 0, 0, 0, 0, 0, 0, 0, 0, 0, 0, 0, 0, 0, 0, 0, 0, 0, 0], [0, 0, 0, 0, 0, 0, 0, 0, 0, 0, 0, 0, 0, 0, 0, 0, 0, 0, 0, 0, 0, 0, 0, 0, 0, 0, 0, 0, 0, 0], [41, 45, 32, 30, 30, 34, 31, 44, 33, 38, 32, 33, 49, 41, 40, 37, 41, 33, 41, 41, 42, 31, 36, 30, 44, 35, 31, 48, 32, 41], [48, 30, 37, 48, 49, 35, 35, 32, 44, 35, 33, 35, 39, 36, 35, 35, 49, 43, 39, 41, 47, 45, 38, 38, 34, 46, 38, 44, 37, 37], [49, 36, 31, 50, 50, 33, 44, 36, 35, 33, 47, 32, 35, 35, 39, 43, 37, 41, 36, 42, 39, 35, 41, 41, 50, 34, 44, 42, 35, 48], [38, 47, 45, 32, 39, 50, 34, 33, 32, 48, 33, 41, 45, 37, 38, 49, 37, 37, 40, 43, 49, 46, 41, 44, 44, 35, 36, 34, 32, 49], [43, 32, 32, 34, 33, 40, 37, 36, 32, 34, 49, 40, 43, 30, 42, 43, 40, 32, 42, 32, 47, 36, 44, 36, 49, 46, 41, 45, 31, 30], [50, 49, 46, 38, 45, 40, 38, 43, 40, 37, 49, 33, 39, 32, 44, 50, 45, 45, 42, 38, 30, 41, 47, 30, 34, 50, 38, 39, 39, 45], [36, 35, 40, 35, 34, 38, 45, 43, 31, 32, 43, 42, 34, 50, 35, 49, 39, 38, 48, 41, 34, 43, 38, 47, 36, 37, 50, 50, 44, 46], [36, 33, 39, 32, 36, 33, 45, 34, 40, 32, 47, 39, 33, 50, 30, 34, 40, 50, 49, 42, 39, 47, 48, 40, 33, 31, 40, 31, 50, 48]], [[0, 0, 0, 0, 0, 0, 0, 0, 0, 0, 0, 0, 0, 0, 0, 0, 0, 0, 0, 0, 0, 0, 0, 0, 0, 0, 0, 0, 0, 0], [0, 0, 0, 0, 0, 0, 0, 0, 0, 0, 0, 0, 0, 0, 0, 0, 0, 0, 0, 0, 0, 0, 0, 0, 0, 0, 0, 0, 0, 0], [0, 0, 0, 0, 0, 0, 0, 0, 0, 0, 0, 0, 0, 0, 0, 0, 0, 0, 0, 0, 0, 0, 0, 0, 0, 0, 0, 0, 0, 0], [39, 32, 48, 50, 48, 36, 32, 36, 30, 45, 42, 32, 50, 36, 50, 30, 50, 46, 37, 31, 48, 47, 46, 34, 40, 44, 40, 34, 39, 44], [37, 30, 43, 31, 40, 36, 50, 39, 33, 30, 49, 36, 49, 37, 43, 38, 45, 32, 38, 46, 37, 50, 36, 46, 44, 43, 43, 43, 36, 32], [30, 32, 45, 43, 44, 43, 30, 43, 31, 42, 40, 33, 48, 32, 42, 40, 41, 49, 49, 39, 44, 46, 40, 32, 37, 32, 30, 43, 32, 47], [45, 44, 37, 41, 37, 33, 39, 50, 45, 38, 41, 45, 34, 42, 48, 47, 49, 41, 44, 39, 45, 41, 37, 37, 33, 31, 46, 47, 45, 37], [39, 45, 50, 45, 46, 41, 49, 45, 47, 44, 36, 47, 32, 41, 44, 41, 40, 44, 34, 34, 39, 49, 35, 45, 39, 50, 43, 45, 49, 45], [48, 33, 31, 37, 30, 35, 34, 44, 33, 50, 45, 37, 37, 50, 46, 39, 38, 32, 33, 37, 48, 49, 36, 38, 33, 36, 38, 44, 45, 39], [33, 47, 46, 34, 48, 41, 37, 40, 44, 35, 45, 39, 36, 50, 38, 39, 33, 33, 37, 30, 41, 38, 35, 34, 42, 31, 38, 43, 35, 49]], [[0, 0, 0, 0, 0, 0, 0, 0, 0, 0, 0, 0, 0, 0, 0, 0, 0, 0, 0, 0, 0, 0, 0, 0, 0, 0, 0, 0, 0, 0], [0, 0, 0, 0, 0, 0, 0, 0, 0, 0, 0, 0, 0, 0, 0, 0, 0, 0, 0, 0, 0, 0, 0, 0, 0, 0, 0, 0, 0, 0], [0, 0, 0, 0, 0, 0, 0, 0, 0, 0, 0, 0, 0, 0, 0, 0, 0, 0, 0, 0, 0, 0, 0, 0, 0, 0, 0, 0, 0, 0], [0, 0, 0, 0, 0, 0, 0, 0, 0, 0, 0, 0, 0, 0, 0, 0, 0, 0, 0, 0, 0, 0, 0, 0, 0, 0, 0, 0, 0, 0], [31, 43, 41, 32, 38, 38, 39, 36, 50, 33, 31, 50, 49, 35, 39, 47, 48, 36, 43, 41, 31, 41, 46, 49, 41, 43, 40, 44, 44, 45], [48, 34, 35, 30, 32, 48, 38, 42, 48, 31, 49, 50, 49, 31, 49, 50, 47, 45, 49, 50, 41, 38, 33, 49, 50, 50, 39, 38, 45, 49], [45, 32, 40, 34, 50, 49, 33, 44, 36, 41, 44, 36, 49, 47, 30, 48, 31, 35, 36, 41, 35, 35, 50, 34, 38, 33, 38, 31, 30, 30], [48, 37, 50, 47, 39, 32, 50, 32, 48, 41, 31, 48, 42, 44, 45, 38, 44, 40, 41, 33, 40, 37, 40, 36, 31, 46, 37, 49, 43, 47], [32, 37, 36, 47, 42, 31, 36, 43, 43, 38, 46, 43, 42, 40, 30, 41, 50, 41, 38, 37, 43, 45, 41, 33, 44, 47, 35, 39, 48, 44], [42, 49, 36, 33, 35, 46, 40, 49, 43, 38, 47, 30, 43, 40, 43, 39, 42, 41, 40, 47, 34, 41, 33, 42, 41, 42, 48, 46, 48, 32]], [[0, 0, 0, 0, 0, 0, 0, 0, 0, 0, 0, 0, 0, 0, 0, 0, 0, 0, 0, 0, 0, 0, 0, 0, 0, 0, 0, 0, 0, 0], [0, 0, 0, 0, 0, 0, 0, 0, 0, 0, 0, 0, 0, 0, 0, 0, 0, 0, 0, 0, 0, 0, 0, 0, 0, 0, 0, 0, 0, 0], [0, 0, 0, 0, 0, 0, 0, 0, 0, 0, 0, 0, 0, 0, 0, 0, 0, 0, 0, 0, 0, 0, 0, 0, 0, 0, 0, 0, 0, 0], [0, 0, 0, 0, 0, 0, 0, 0, 0, 0, 0, 0, 0, 0, 0, 0, 0, 0, 0, 0, 0, 0, 0, 0, 0, 0, 0, 0, 0, 0], [0, 0, 0, 0, 0, 0, 0, 0, 0, 0, 0, 0, 0, 0, 0, 0, 0, 0, 0, 0, 0, 0, 0, 0, 0, 0, 0, 0, 0, 0], [43, 45, 47, 46, 36, 39, 41, 45, 47, 34, 30, 42, 45, 41, 31, 40, 47, 47, 46, 43, 31, 50, 48, 33, 48, 33, 36, 40, 46, 30], [49, 44, 41, 39, 31, 39, 33, 35, 48, 37, 38, 50, 43, 34, 31, 48, 35, 34, 43, 42, 30, 48, 49, 30, 44, 44, 45, 32, 46, 43], [40, 38, 42, 43, 48, 46, 31, 33, 38, 41, 32, 32, 38, 46, 40, 40, 37, 33, 36, 36, 37, 36, 30, 38, 35, 39, 35, 35, 42, 30], [37, 41, 45, 32, 31, 31, 40, 45, 39, 48, 45, 31, 47, 38, 50, 41, 47, 41, 48, 46, 36, 39, 35, 46, 33, 49, 32, 37, 47, 40], [38, 48, 31, 39, 33, 31, 35, 35, 40, 33, 38, 35, 31, 40, 48, 31, 48, 39, 46, 41, 37, 31, 37, 40, 50, 45, 45, 49, 31, 46]], [[0, 0, 0, 0, 0, 0, 0, 0, 0, 0, 0, 0, 0, 0, 0, 0, 0, 0, 0, 0, 0, 0, 0, 0, 0, 0, 0, 0, 0, 0], [0, 0, 0, 0, 0, 0, 0, 0, 0, 0, 0, 0, 0, 0, 0, 0, 0, 0, 0, 0, 0, 0, 0, 0, 0, 0, 0, 0, 0, 0], [0, 0, 0, 0, 0, 0, 0, 0, 0, 0, 0, 0, 0, 0, 0, 0, 0, 0, 0, 0, 0, 0, 0, 0, 0, 0, 0, 0, 0, 0], [0, 0, 0, 0, 0, 0, 0, 0, 0, 0, 0, 0, 0, 0, 0, 0, 0, 0, 0, 0, 0, 0, 0, 0, 0, 0, 0, 0, 0, 0], [0, 0, 0, 0, 0, 0, 0, 0, 0, 0, 0, 0, 0, 0, 0, 0, 0, 0, 0, 0, 0, 0, 0, 0, 0, 0, 0, 0, 0, 0], [0, 0, 0, 0, 0, 0, 0, 0, 0, 0, 0, 0, 0, 0, 0, 0, 0, 0, 0, 0, 0, 0, 0, 0, 0, 0, 0, 0, 0, 0], [50, 37, 36, 47, 40, 45, 45, 48, 34, 47, 47, 50, 35, 33, 45, 44, 47, 50, 39, 39, 35, 42, 44, 43, 38, 34, 38, 32, 43, 37], [44, 40, 40, 34, 46, 47, 48, 44, 32, 35, 47, 46, 50, 31, 32, 32, 40, 30, 40, 41, 47, 47, 38, 49, 34, 34, 50, 43, 35, 36], [43, 47, 46, 33, 32, 49, 30, 42, 32, 31, 48, 30, 49, 50, 40, 37, 44, 37, 38, 34, 31, 33, 30, 36, 46, 49, 39, 39, 50, 33], [30, 46, 42, 40, 31, 41, 42, 43, 49, 39, 37, 34, 46, 35, 46, 48, 40, 45, 37, 47, 33, 33, 42, 34, 41, 46, 48, 38, 35, 46]], [[0, 0, 0, 0, 0, 0, 0, 0, 0, 0, 0, 0, 0, 0, 0, 0, 0, 0, 0, 0, 0, 0, 0, 0, 0, 0, 0, 0, 0, 0], [0, 0, 0, 0, 0, 0, 0, 0, 0, 0, 0, 0, 0, 0, 0, 0, 0, 0, 0, 0, 0, 0, 0, 0, 0, 0, 0, 0, 0, 0], [0, 0, 0, 0, 0, 0, 0, 0, 0, 0, 0, 0, 0, 0, 0, 0, 0, 0, 0, 0, 0, 0, 0, 0, 0, 0, 0, 0, 0, 0], [0, 0, 0, 0, 0, 0, 0, 0, 0, 0, 0, 0, 0, 0, 0, 0, 0, 0, 0, 0, 0, 0, 0, 0, 0, 0, 0, 0, 0, 0], [0, 0, 0, 0, 0, 0, 0, 0, 0, 0, 0, 0, 0, 0, 0, 0, 0, 0, 0, 0, 0, 0, 0, 0, 0, 0, 0, 0, 0, 0], [0, 0, 0, 0, 0, 0, 0, 0, 0, 0, 0, 0, 0, 0, 0, 0, 0, 0, 0, 0, 0, 0, 0, 0, 0, 0, 0, 0, 0, 0], [0, 0, 0, 0, 0, 0, 0, 0, 0, 0, 0, 0, 0, 0, 0, 0, 0, 0, 0, 0, 0, 0, 0, 0, 0, 0, 0, 0, 0, 0], [43, 34, 39, 31, 48, 30, 45, 37, 30, 46, 31, 46, 35, 49, 44, 31, 41, 31, 40, 32, 39, 30, 50, 46, 30, 50, 48, 36, 43, 41], [41, 35, 45, 34, 38, 36, 48, 32, 45, 32, 49, 46, 44, 37, 41, 33, 38, 50, 46, 34, 41, 42, 42, 42, 48, 33, 32, 46, 48, 41], [42, 34, 39, 45, 33, 33, 40, 48, 43, 49, 36, 33, 42, 38, 40, 35, 39, 37, 43, 45, 48, 38, 32, 49, 36, 47, 34, 42, 37, 48]], [[0, 0, 0, 0, 0, 0, 0, 0, 0, 0, 0, 0, 0, 0, 0, 0, 0, 0, 0, 0, 0, 0, 0, 0, 0, 0, 0, 0, 0, 0], [0, 0, 0, 0, 0, 0, 0, 0, 0, 0, 0, 0, 0, 0, 0, 0, 0, 0, 0, 0, 0, 0, 0, 0, 0, 0, 0, 0, 0, 0], [0, 0, 0, 0, 0, 0, 0, 0, 0, 0, 0, 0, 0, 0, 0, 0, 0, 0, 0, 0, 0, 0, 0, 0, 0, 0, 0, 0, 0, 0], [0, 0, 0, 0, 0, 0, 0, 0, 0, 0, 0, 0, 0, 0, 0, 0, 0, 0, 0, 0, 0, 0, 0, 0, 0, 0, 0, 0, 0, 0], [0, 0, 0, 0, 0, 0, 0, 0, 0, 0, 0, 0, 0, 0, 0, 0, 0, 0, 0, 0, 0, 0, 0, 0, 0, 0, 0, 0, 0, 0], [0, 0, 0, 0, 0, 0, 0, 0, 0, 0, 0, 0, 0, 0, 0, 0, 0, 0, 0, 0, 0, 0, 0, 0, 0, 0, 0, 0, 0, 0], [0, 0, 0, 0, 0, 0, 0, 0, 0, 0, 0, 0, 0, 0, 0, 0, 0, 0, 0, 0, 0, 0, 0, 0, 0, 0, 0, 0, 0, 0], [0, 0, 0, 0, 0, 0, 0, 0, 0, 0, 0, 0, 0, 0, 0, 0, 0, 0, 0, 0, 0, 0, 0, 0, 0, 0, 0, 0, 0, 0], [36, 43, 50, 35, 50, 40, 33, 48, 45, 44, 36, 37, 35, 36, 41, 36, 45, 37, 41, 35, 38, 39, 36, 43, 34, 32, 49, 44, 36, 36], [45, 41, 32, 36, 50, 31, 43, 33, 46, 38, 48, 44, 40, 35, 40, 32, 30, 41, 39, 38, 43, 32, 34, 34, 34, 49, 34, 40, 32, 39]], [[0, 0, 0, 0, 0, 0, 0, 0, 0, 0, 0, 0, 0, 0, 0, 0, 0, 0, 0, 0, 0, 0, 0, 0, 0, 0, 0, 0, 0, 0], [0, 0, 0, 0, 0, 0, 0, 0, 0, 0, 0, 0, 0, 0, 0, 0, 0, 0, 0, 0, 0, 0, 0, 0, 0, 0, 0, 0, 0, 0], [0, 0, 0, 0, 0, 0, 0, 0, 0, 0, 0, 0, 0, 0, 0, 0, 0, 0, 0, 0, 0, 0, 0, 0, 0, 0, 0, 0, 0, 0], [0, 0, 0, 0, 0, 0, 0, 0, 0, 0, 0, 0, 0, 0, 0, 0, 0, 0, 0, 0, 0, 0, 0, 0, 0, 0, 0, 0, 0, 0], [0, 0, 0, 0, 0, 0, 0, 0, 0, 0, 0, 0, 0, 0, 0, 0, 0, 0, 0, 0, 0, 0, 0, 0, 0, 0, 0, 0, 0, 0], [0, 0, 0, 0, 0, 0, 0, 0, 0, 0, 0, 0, 0, 0, 0, 0, 0, 0, 0, 0, 0, 0, 0, 0, 0, 0, 0, 0, 0, 0], [0, 0, 0, 0, 0, 0, 0, 0, 0, 0, 0, 0, 0, 0, 0, 0, 0, 0, 0, 0, 0, 0, 0, 0, 0, 0, 0, 0, 0, 0], [0, 0, 0, 0, 0, 0, 0, 0, 0, 0, 0, 0, 0, 0, 0, 0, 0, 0, 0, 0, 0, 0, 0, 0, 0, 0, 0, 0, 0, 0], [0, 0, 0, 0, 0, 0, 0, 0, 0, 0, 0, 0, 0, 0, 0, 0, 0, 0, 0, 0, 0, 0, 0, 0, 0, 0, 0, 0, 0, 0], [32, 49, 36, 37, 41, 44, 49, 42, 40, 43, 44, 33, 41, 36, 47, 46, 49, 33, 35, 43, 41, 34, 38, 31, 40, 47, 37, 42, 38, 41]], [[0, 0, 0, 0, 0, 0, 0, 0, 0, 0, 0, 0, 0, 0, 0, 0, 0, 0, 0, 0, 0, 0, 0, 0, 0, 0, 0, 0, 0, 0], [0, 0, 0, 0, 0, 0, 0, 0, 0, 0, 0, 0, 0, 0, 0, 0, 0, 0, 0, 0, 0, 0, 0, 0, 0, 0, 0, 0, 0, 0], [0, 0, 0, 0, 0, 0, 0, 0, 0, 0, 0, 0, 0, 0, 0, 0, 0, 0, 0, 0, 0, 0, 0, 0, 0, 0, 0, 0, 0, 0], [0, 0, 0, 0, 0, 0, 0, 0, 0, 0, 0, 0, 0, 0, 0, 0, 0, 0, 0, 0, 0, 0, 0, 0, 0, 0, 0, 0, 0, 0], [0, 0, 0, 0, 0, 0, 0, 0, 0, 0, 0, 0, 0, 0, 0, 0, 0, 0, 0, 0, 0, 0, 0, 0, 0, 0, 0, 0, 0, 0], [0, 0, 0, 0, 0, 0, 0, 0, 0, 0, 0, 0, 0, 0, 0, 0, 0, 0, 0, 0, 0, 0, 0, 0, 0, 0, 0, 0, 0, 0], [0, 0, 0, 0, 0, 0, 0, 0, 0, 0, 0, 0, 0, 0, 0, 0, 0, 0, 0, 0, 0, 0, 0, 0, 0, 0, 0, 0, 0, 0], [0, 0, 0, 0, 0, 0, 0, 0, 0, 0, 0, 0, 0, 0, 0, 0, 0, 0, 0, 0, 0, 0, 0, 0, 0, 0, 0, 0, 0, 0], [0, 0, 0, 0, 0, 0, 0, 0, 0, 0, 0, 0, 0, 0, 0, 0, 0, 0, 0, 0, 0, 0, 0, 0, 0, 0, 0, 0, 0, 0], [0, 0, 0, 0, 0, 0, 0, 0, 0, 0, 0, 0, 0, 0, 0, 0, 0, 0, 0, 0, 0, 0, 0, 0, 0, 0, 0, 0, 0, 0]]];

q = [[[5, 121], [25, 108], [11, 112], [25, 112], [7, 107], [15, 116], [17, 105], [12, 112], [17, 109], [9, 106], [20, 121], [14, 122], [13, 110], [25, 122], [5, 106], [18, 125], [15, 117], [13, 106], [8, 125], [18, 118], [15, 112], [8, 112], [19, 119], [8, 120], [11, 111], [7, 109], [13, 106], [15, 120], [7, 110], [16, 115]], [[11, 118], [6, 122], [18, 108], [10, 118], [21, 118], [23, 114], [15, 106], [22, 115], [21, 107], [10, 113], [22, 105], [7, 110], [24, 114], [7, 114], [9, 115], [19, 105], [24, 121], [11, 120], [20, 120], [18, 116], [8, 119], [8, 116], [19, 120], [14, 121], [9, 115], [16, 111], [10, 111], [6, 116], [16, 105], [7, 114]], [[7, 106], [7, 119], [11, 107], [14, 118], [20, 107], [22, 107], [8, 115], [22, 115], [21, 120], [22, 114], [10, 112], [25, 106], [23, 106], [19, 112], [11, 119], [24, 120], [8, 115], [6, 117], [24, 119], [18, 119], [22, 112], [12, 115], [17, 116], [9, 106], [13, 121], [18, 115], [23, 109], [16, 107], [10, 121], [19, 124]], [[16, 124], [17, 125], [21, 118], [9, 125], [15, 114], [24, 105], [15, 106], [24, 110], [17, 118], [21, 109], [8, 113], [18, 113], [15, 109], [11, 105], [19, 111], [25, 124], [18, 124], [9, 115], [18, 116], [7, 119], [17, 119], [25, 124], [19, 119], [15, 125], [25, 109], [19, 108], [14, 113], [10, 110], [6, 107], [15, 122]], [[24, 116], [10, 118], [9, 105], [22, 120], [19, 113], [16, 105], [11, 109], [22, 110], [6, 123], [23, 105], [25, 123], [24, 105], [15, 108], [23, 118], [24, 119], [15, 107], [25, 114], [19, 114], [24, 110], [24, 115], [22, 109], [18, 109], [22, 121], [17, 113], [25, 106], [25, 120], [10, 116], [20, 120], [12, 122], [20, 119]], [[19, 112], [16, 105], [13, 121], [9, 118], [7, 125], [16, 114], [8, 120], [16, 121], [6, 109], [12, 109], [9, 122], [14, 114], [8, 118], [14, 109], [7, 117], [23, 123], [5, 115], [7, 124], [17, 121], [25, 125], [13, 111], [10, 107], [13, 105], [13, 105], [5, 120], [8, 115], [7, 114], [21, 118], [6, 113], [13, 110]], [[5, 120], [24, 117], [6, 108], [7, 105], [16, 122], [22, 119], [6, 116], [20, 116], [16, 105], [22, 108], [10, 124], [13, 124], [16, 120], [25, 124], [17, 113], [18, 113], [12, 114], [21, 106], [23, 108], [9, 106], [9, 122], [8, 122], [10, 108], [13, 110], [22, 107], [8, 125], [21, 118], [23, 122], [22, 110], [16, 118]], [[15, 105], [15, 121], [14, 106], [13, 121], [15, 118], [23, 111], [20, 109], [17, 121], [18, 108], [6, 121], [5, 122], [21, 117], [18, 108], [21, 106], [24, 123], [19, 124], [7, 111], [10, 120], [9, 124], [12, 114], [12, 117], [11, 120], [18, 110], [23, 123], [19, 106], [10, 118], [16, 113], [22, 117], [21, 125], [19, 106]], [[22, 105], [18, 113], [15, 111], [10, 121], [17, 106], [22, 107], [17, 105], [14, 121], [18, 118], [17, 125], [14, 121], [16, 112], [8, 124], [20, 108], [5, 114], [20, 118], [16, 111], [15, 112], [17, 114], [25, 115], [21, 124], [25, 121], [20, 106], [11, 119], [10, 125], [15, 105], [19, 106], [6, 112], [19, 115], [9, 115]], [[25, 116], [14, 114], [6, 122], [23, 107], [7, 108], [14, 125], [24, 117], [5, 105], [21, 110], [24, 107], [25, 111], [21, 121], [8, 116], [11, 116], [22, 123], [14, 109], [14, 123], [7, 118], [19, 122], [5, 116], [20, 105], [12, 106], [24, 109], [17, 118], [23, 115], [7, 118], [16, 112], [22, 114], [22, 121], [20, 109]]];
Q = [[32, 274], [34, 275], [38, 274], [39, 277], [45, 273], [28, 277], [36, 276], [37, 278], [38, 275], [39, 275]];
